DATASET = "thpack1";
INSTANCE = "090";

WIDTH = 233;
HEIGHT = 220;
LENGTH = 587;

NO_OF_SHAPES = 3;
size = [|
  91,52,33 |
  87,81,63 |
  113,79,45 |
|];

verticality = [|
  0,1,1 |
  1,1,1 |
  0,1,1 |
|];

box_count = [
  30,
  26,
  34,
];
